words_hard_train/2192.qaiger
aag 105 22 0 1 83
2
4
8
10
22
24
36
38
50
52
64
66
82
88
92
120
132
142
152
170
192
196
210
6 2 4
12 9 11
14 8 10
16 13 15
18 6 16
20 19 15
26 23 25
28 22 24
30 27 29
32 21 30
34 33 29
40 37 39
42 36 38
44 41 43
46 35 44
48 47 43
54 51 53
56 50 52
58 55 57
60 49 58
62 61 57
68 65 67
70 64 66
72 69 71
74 62 73
76 63 72
78 75 77
80 78 66
84 81 83
86 77 71
90 86 88
94 91 92
96 88 92
98 87 97
100 89 93
102 98 101
104 94 103
106 84 105
108 80 82
110 108 104
112 107 111
114 48 59
116 115 61
118 116 52
122 118 121
124 113 123
126 34 45
128 127 47
130 128 38
134 131 132
136 7 17
138 137 10
140 138 19
144 141 143
146 140 142
148 145 147
150 3 4
154 151 152
156 150 153
158 155 157
160 149 158
162 135 160
164 20 31
166 165 24
168 166 33
172 169 171
174 168 170
176 173 175
178 119 120
180 177 179
182 130 133
184 180 183
186 162 184
188 124 186
190 103 97
194 191 193
198 195 196
200 190 192
202 198 201
204 203 82
206 188 205
208 202 83
210 206 209
i0 1 x2[0]
i1 2 y1[0]
i2 1 x2[1]
i3 2 y1[1]
i4 1 x2[2]
i5 2 y1[2]
i6 1 x2[3]
i7 2 y1[3]
i8 1 x2[4]
i9 2 y1[4]
i10 1 x2[5]
i11 2 y1[5]
i12 2 y2[7]
i13 1 x2[6]
i14 2 y1[6]
i15 2 y2[6]
i16 2 y2[5]
i17 2 y2[3]
i18 2 y2[2]
i19 2 y2[4]
i20 1 x2[7]
i21 2 y1[7]
o0 bool[0]
c
simplified
  ==
    >> 2
      2 y2
    and
      2 y1
      add
        1 x2
        2 y1
