words_hard_train/2192.qaiger.qdimacs
p cnf 105 250
a 32 1 96 4 11 44 18 25 0
e 2 3 5 6 7 8 9 10 12 13 14 15 16 17 19 20 21 22 23 24 26 27 28 29 30 31 33 34 35 36 37 38 39 40 41 42 43 45 46 47 48 49 50 51 52 53 54 55 56 57 58 59 60 61 62 63 64 65 66 67 68 69 70 71 72 73 74 75 76 77 78 79 80 81 82 83 84 85 86 87 88 89 90 91 92 93 94 95 97 98 99 100 101 102 103 104 105 0
-1 -2 3 0
1 -3 0
2 -3 0
4 5 6 0
-4 -6 0
-5 -6 0
-4 -5 7 0
4 -7 0
5 -7 0
6 7 8 0
-6 -8 0
-7 -8 0
-3 -8 9 0
3 -9 0
8 -9 0
9 7 10 0
-9 -10 0
-7 -10 0
11 12 13 0
-11 -13 0
-12 -13 0
-11 -12 14 0
11 -14 0
12 -14 0
13 14 15 0
-13 -15 0
-14 -15 0
10 -15 16 0
-10 -16 0
15 -16 0
16 14 17 0
-16 -17 0
-14 -17 0
18 19 20 0
-18 -20 0
-19 -20 0
-18 -19 21 0
18 -21 0
19 -21 0
20 21 22 0
-20 -22 0
-21 -22 0
17 -22 23 0
-17 -23 0
22 -23 0
23 21 24 0
-23 -24 0
-21 -24 0
25 26 27 0
-25 -27 0
-26 -27 0
-25 -26 28 0
25 -28 0
26 -28 0
27 28 29 0
-27 -29 0
-28 -29 0
24 -29 30 0
-24 -30 0
29 -30 0
30 28 31 0
-30 -31 0
-28 -31 0
32 33 34 0
-32 -34 0
-33 -34 0
-32 -33 35 0
32 -35 0
33 -35 0
34 35 36 0
-34 -36 0
-35 -36 0
-31 36 37 0
31 -37 0
-36 -37 0
31 -36 38 0
-31 -38 0
36 -38 0
37 38 39 0
-37 -39 0
-38 -39 0
-39 -33 40 0
39 -40 0
33 -40 0
40 41 42 0
-40 -42 0
-41 -42 0
38 35 43 0
-38 -43 0
-35 -43 0
-43 -44 45 0
43 -45 0
44 -45 0
45 -46 47 0
-45 -47 0
46 -47 0
-44 -46 48 0
44 -48 0
46 -48 0
43 48 49 0
-43 -49 0
-48 -49 0
44 46 50 0
-44 -50 0
-46 -50 0
-49 50 51 0
49 -51 0
-50 -51 0
-47 51 52 0
47 -52 0
-51 -52 0
-42 52 53 0
42 -53 0
-52 -53 0
-40 -41 54 0
40 -54 0
41 -54 0
-54 -52 55 0
54 -55 0
52 -55 0
53 55 56 0
-53 -56 0
-55 -56 0
-24 29 57 0
24 -57 0
-29 -57 0
57 30 58 0
-57 -58 0
-30 -58 0
-58 -26 59 0
58 -59 0
26 -59 0
-59 60 61 0
59 -61 0
-60 -61 0
56 61 62 0
-56 -62 0
-61 -62 0
-17 22 63 0
17 -63 0
-22 -63 0
63 23 64 0
-63 -64 0
-23 -64 0
-64 -19 65 0
64 -65 0
19 -65 0
65 -66 67 0
-65 -67 0
66 -67 0
3 8 68 0
-3 -68 0
-8 -68 0
68 -5 69 0
-68 -69 0
5 -69 0
-69 9 70 0
69 -70 0
-9 -70 0
70 71 72 0
-70 -72 0
-71 -72 0
-70 -71 73 0
70 -73 0
71 -73 0
72 73 74 0
-72 -74 0
-73 -74 0
1 -2 75 0
-1 -75 0
2 -75 0
75 -76 77 0
-75 -77 0
76 -77 0
-75 76 78 0
75 -78 0
-76 -78 0
77 78 79 0
-77 -79 0
-78 -79 0
74 -79 80 0
-74 -80 0
79 -80 0
67 -80 81 0
-67 -81 0
80 -81 0
-10 15 82 0
10 -82 0
-15 -82 0
82 -12 83 0
-82 -83 0
12 -83 0
-83 16 84 0
83 -84 0
-16 -84 0
84 85 86 0
-84 -86 0
-85 -86 0
-84 -85 87 0
84 -87 0
85 -87 0
86 87 88 0
-86 -88 0
-87 -88 0
59 -60 89 0
-59 -89 0
60 -89 0
88 89 90 0
-88 -90 0
-89 -90 0
-65 66 91 0
65 -91 0
-66 -91 0
-90 91 92 0
90 -92 0
-91 -92 0
-81 -92 93 0
81 -93 0
92 -93 0
-62 -93 94 0
62 -94 0
93 -94 0
51 48 95 0
-51 -95 0
-48 -95 0
95 96 97 0
-95 -97 0
-96 -97 0
97 -98 99 0
-97 -99 0
98 -99 0
-95 -96 100 0
95 -100 0
96 -100 0
-99 100 101 0
99 -101 0
-100 -101 0
101 -41 102 0
-101 -102 0
41 -102 0
-94 102 103 0
94 -103 0
-102 -103 0
-101 41 104 0
101 -104 0
-41 -104 0
-103 104 105 0
103 -105 0
-104 -105 0
105 0
